60
16
0 16 17 20 21 24 25 29 31 34 39 40 43 44 46 47 48 49 50 51 52 54 55 58 59
1 16 17 20 22 25 29 30 31 34 36 39 41 43 46 48 50 51 52 55 56 57 58 59
2 16 18 21 23 24 25 29 31 32 34 36 38 43 45 46 48 49 50 55 59
3 16 18 20 21 25 30 31 33 36 38 42 43 45 47 49 50 52 54 55 57 58 59
4 17 20 24 25 31 32 33 39 41 42 43 46 48 49 50 52 54
5 16 17 18 20 24 29 31 34 35 39 42 45 46 48 49 50 52 56 57 58 59
6 17 19 20 21 22 24 28 32 34 36 37 40 41 42 46 48 49 50 51 55 56 57 59
7 19 20 30 36 37 40 41 42 49 51 52 54 55 58 59
8 17 20 22 29 34 39 40 41 42 43 45 46 50 52 54 57
9 18 20 21 22 25 26 28 29 30 31 36 40 42 46 49 56
10 16 18 19 26 27 28 29 30 31 35 43 45 46 48 54 56 57 58
11 19 20 31 34 37 39 47 51
12 16 17 25 27 29 33 48 51 53 58
13 17 21 29 30 38 39 49 50 58
14 23 24 25 26 34 36 42 44 55
15 19 24
